; benchmark generated from python API
(set-info :status unknown)
(declare-datatypes ((RealState 0)) (((RMk1 (rval1 Real)) (RMk2 (rval2 Real)))))
 (assert
 (forall ((|v17:0| Real) )(forall ((|v16:1| Real) )(forall ((|v15:2| Real) )(forall ((|v14:3| Real) )(forall ((|v13:4| Real) )(forall ((|v12:5| Real) )(exists ((|v11:6_st| RealState) (val!8472 Real) )(exists ((|v10:7_st| RealState) (val!8473 Real) )(exists ((|v9:8_st| RealState) (val!8474 Real) )(exists ((|v8:9_st| RealState) (val!8475 Real) )(exists ((|v7:10_st| RealState) (val!8476 Real) )(exists ((|v6:11_st| RealState) (val!8477 Real) )(forall ((|v5:12| Real) )(forall ((|v4:13| Real) )(forall ((|v3:14| Real) )(forall ((|v2:15| Real) )(forall ((|v1:16| Real) )(forall ((|v0:17| Real) )(let ((?x2092 (- 1.0)))
 (let ((?x2066 (+ (+ (+ (* (- 8.0) |v12:5|) (* (- 19.0) |v14:3|)) (* 13.0 |v17:0|)) (* 18.0 |v14:3|))))
 (let ((?x3125 (- 15.0)))
 (let ((?x896 (* 16.0 |v2:15|)))
 (let ((?x2719 (rval2 |v8:9_st|)))
 (let ((?x169 (- 5.0)))
 (let ((?x644 (* ?x169 ?x2719)))
 (let ((?x2600 (+ (+ (+ (* 5.0 (rval2 |v11:6_st|)) (* 5.0 (rval2 |v6:11_st|))) ?x644) ?x896)))
 (let ((?x3287 (* 2.0 |v4:13|)))
 (let ((?x2382 (+ (+ (+ (* 10.0 |v2:15|) (* (- 7.0) |v13:4|)) (* 6.0 (rval2 |v11:6_st|))) ?x3287)))
 (let ((?x2910 (- 6.0)))
 (let ((?x2309 (- 18.0)))
 (let ((?x30 (* ?x2309 |v4:13|)))
 (let ((?x2823 (+ (+ (* (- 4.0) |v2:15|) (* 20.0 (rval2 |v10:7_st|))) (* (- 20.0) |v16:1|))))
 (let ((?x2036 (+ (+ (+ (* 2.0 |v15:2|) (* (- 16.0) |v13:4|)) (* 2.0 (rval2 |v6:11_st|))) (* ?x2309 |v15:2|))))
 (let (($x1094 (or (or (<= ?x2036 0.0) (<= (+ ?x2823 ?x30) ?x2910)) (or (<= ?x2382 11.0) (<= ?x2600 ?x3125)))))
 (let ((?x448 (- 10.0)))
 (let ((?x912 (* ?x448 |v2:15|)))
 (let (($x2277 (<= (+ (+ (+ (* 19.0 |v17:0|) (* 17.0 |v0:17|)) (* 0.0 |v14:3|)) ?x912) 10.0)))
 (let ((?x228 (+ (+ (* 9.0 (rval2 |v11:6_st|)) (* (- 13.0) |v17:0|)) (* (- 20.0) ?x2719))))
 (let ((?x3386 (* 5.0 |v13:4|)))
 (let ((?x2774 (+ (+ (+ (* 7.0 |v5:12|) (* (- 14.0) (rval2 |v9:8_st|))) (* 4.0 |v5:12|)) ?x3386)))
 (let (($x1831 (and (or (<= ?x2774 16.0) (and (<= (+ ?x228 ?x644) 16.0) $x2277)) $x1094)))
 (let ((?x3354 (- 16.0)))
 (let ((?x2537 (* ?x3354 |v3:14|)))
 (let ((?x949 (+ (+ (+ (* ?x3354 |v12:5|) (* ?x2910 |v17:0|)) (* 12.0 (rval2 |v9:8_st|))) ?x2537)))
 (let ((?x540 (* 9.0 |v17:0|)))
 (let ((?x390 (+ (+ (+ (* 16.0 |v14:3|) (* (- 14.0) |v16:1|)) (* (- 19.0) |v2:15|)) ?x540)))
 (let ((?x473 (+ (+ (+ (* 17.0 |v15:2|) (* (- 20.0) |v4:13|)) (* 12.0 (rval2 |v10:7_st|))) (* 19.0 (rval2 |v9:8_st|)))))
 (let ((?x3055 (- 2.0)))
 (let ((?x3460 (rval2 |v11:6_st|)))
 (let ((?x1213 (* 5.0 ?x3460)))
 (let ((?x2168 (+ (+ (+ (* ?x3125 |v5:12|) (* (- 12.0) (rval2 |v9:8_st|))) ?x1213) (* 4.0 |v17:0|))))
 (let (($x591 (and (or (<= ?x2168 ?x3055) (and (<= ?x473 18.0) (<= ?x390 18.0))) (<= ?x949 8.0))))
 (let ((?x578 (* ?x2910 |v3:14|)))
 (let ((?x2124 (+ (+ (+ (* (- 11.0) (rval2 |v10:7_st|)) (* (- 20.0) |v17:0|)) ?x578) (* 4.0 (rval2 |v9:8_st|)))))
 (let ((?x2673 (- 12.0)))
 (let ((?x2059 (* 18.0 |v0:17|)))
 (let (($x446 (<= (+ (+ (+ (* (- 11.0) ?x3460) (* ?x2910 (rval2 |v10:7_st|))) |v16:1|) ?x2059) ?x2673)))
 (let ((?x2485 (rval2 |v6:11_st|)))
 (let ((?x1092 (* 8.0 ?x2485)))
 (let (($x71 (<= (+ (+ (+ (* ?x169 ?x2485) (* 13.0 |v4:13|)) (* 18.0 ?x3460)) ?x1092) 0.0)))
 (let ((?x3141 (- 3.0)))
 (let ((?x770 (* ?x3141 |v12:5|)))
 (let (($x544 (<= (+ (+ (+ (* 15.0 |v3:14|) (* 4.0 ?x2485)) (* 13.0 |v4:13|)) ?x770) 2.0)))
 (let ((?x3349 (+ (+ (+ (* (- 19.0) (rval2 |v7:10_st|)) (* 8.0 |v12:5|)) (* 14.0 |v5:12|)) ?x770)))
 (let ((?x2738 (+ (+ (+ (* ?x2673 |v2:15|) (* ?x2910 |v12:5|)) (* ?x169 |v13:4|)) (* (- 13.0) (rval2 |v7:10_st|)))))
 (let (($x2902 (<= (+ (+ (+ (* 11.0 |v16:1|) (* ?x448 |v17:0|)) |v2:15|) (* (- 17.0) |v13:4|)) ?x2673)))
 (let (($x2606 (or (and $x2902 (and (<= ?x2738 1.0) (<= ?x3349 20.0))) (and (and $x544 $x71) (or $x446 (<= ?x2124 ?x2309))))))
 (let ((?x2470 (rval2 |v7:10_st|)))
 (let ((?x1070 (* 14.0 ?x2470)))
 (let (($x1115 (<= (+ (+ (+ (* 0.0 ?x2485) (* 16.0 |v15:2|)) (* ?x3141 |v1:16|)) ?x1070) 6.0)))
 (let ((?x3291 (* 16.0 |v5:12|)))
 (let (($x2093 (<= (+ (+ (+ (* 0.0 |v1:16|) (* ?x3141 |v3:14|)) (* 15.0 ?x2485)) ?x3291) ?x3055)))
 (let ((?x1223 (* 11.0 |v3:14|)))
 (let (($x2196 (<= (+ (+ (+ (* ?x3125 |v17:0|) (* (- 4.0) ?x2719)) (* ?x3354 |v13:4|)) ?x1223) 3.0)))
 (let ((?x2006 (* 10.0 |v17:0|)))
 (let (($x854 (<= (+ (+ (+ |v0:17| (* 12.0 |v3:14|)) (* (- 8.0) (rval2 |v9:8_st|))) ?x2006) 0.0)))
 (let ((?x1027 (+ (+ (+ ?x1092 (* (- 4.0) |v4:13|)) (* 15.0 |v15:2|)) (* 14.0 |v17:0|))))
 (let ((?x1292 (- 13.0)))
 (let ((?x150 (* 12.0 |v5:12|)))
 (let (($x3119 (<= (+ (+ (+ (* 8.0 |v0:17|) (* 7.0 ?x3460)) (* 12.0 |v2:15|)) ?x150) ?x1292)))
 (let ((?x2675 (* 6.0 |v17:0|)))
 (let (($x608 (<= (+ (+ (+ (* 11.0 |v15:2|) (* ?x3125 |v1:16|)) (* 18.0 |v3:14|)) ?x2675) ?x2673)))
 (let ((?x216 (- 19.0)))
 (let ((?x2849 (* ?x216 |v4:13|)))
 (let (($x815 (<= (+ (+ (+ (* ?x3055 |v1:16|) (* 9.0 |v13:4|)) (* ?x3125 |v15:2|)) ?x2849) ?x3354)))
 (let ((?x1220 (* ?x3354 |v4:13|)))
 (let (($x2089 (<= (+ (+ (+ (* (- 7.0) |v0:17|) (* ?x1292 |v1:16|)) (* 4.0 |v13:4|)) ?x1220) 17.0)))
 (let (($x2778 (or (and (and $x2089 $x815) (and $x608 $x3119)) (or (or (<= ?x1027 12.0) $x854) (or $x2196 $x2093)))))
 (let ((?x1075 (+ (+ (+ (* ?x2309 |v12:5|) (* 11.0 ?x2470)) (* 7.0 |v4:13|)) (* 0.0 ?x3460))))
 (let ((?x1278 (+ (+ (+ (* ?x169 |v5:12|) (* (- 20.0) |v0:17|)) (* ?x3055 ?x2719)) (* 18.0 ?x2719))))
 (let ((?x1787 (* ?x2309 |v3:14|)))
 (let ((?x1249 (+ (+ (+ (* 15.0 ?x2485) (* 2.0 |v2:15|)) (* (- 14.0) ?x2470)) ?x1787)))
 (let ((?x271 (* 19.0 |v12:5|)))
 (let (($x1951 (<= (+ (+ (+ (* 7.0 |v2:15|) (* 10.0 ?x3460)) (* 18.0 |v2:15|)) ?x271) ?x169)))
 (let (($x1562 (and (and $x1951 (<= ?x1249 9.0)) (or (<= ?x1278 ?x3354) (<= ?x1075 7.0)))))
 (let (($x2431 (<= (+ (+ (+ ?x3287 (* 9.0 |v16:1|)) (* ?x3354 |v1:16|)) (* ?x169 |v15:2|)) 13.0)))
 (let ((?x3238 (+ (+ (+ (* ?x448 ?x2470) (* 9.0 (rval2 |v9:8_st|))) (* 6.0 |v3:14|)) (* (- 11.0) |v14:3|))))
 (let ((?x1197 (+ (+ (+ (* ?x2673 |v1:16|) (* 3.0 |v12:5|)) (* 6.0 ?x3460)) (* 2.0 |v12:5|))))
 (let (($x214 (or (<= ?x1197 15.0) (<= (+ (+ (+ ?x578 ?x2059) (* 13.0 |v12:5|)) (* ?x2092 ?x3460)) 8.0))))
 (let (($x149 (and (and (or (and $x214 (and (<= ?x3238 7.0) $x2431)) $x1562) $x2778) $x1115)))
 (let (($x785 (not (= |v6:11_st| (RMk1 val!8477)))))
 (let (($x1017 (not (= |v7:10_st| (RMk1 val!8476)))))
 (let (($x2912 (not (= |v8:9_st| (RMk1 val!8475)))))
 (let (($x2702 (not (= |v9:8_st| (RMk1 val!8474)))))
 (let (($x1978 (not (= |v10:7_st| (RMk1 val!8473)))))
 (let (($x891 (not (= |v11:6_st| (RMk1 val!8472)))))
 (and $x891 $x1978 $x2702 $x2912 $x1017 $x785 (or $x149 (or (or $x2606 $x591) (or $x1831 (<= ?x2066 ?x2092))))))))))))))))))))))))))))))))))))))))))))))))))))))))))))))))))))))))))))))))))))))))))))))
 )
 )
 )
 )
 )
 )
 )
 )
 )
 )
 )
 )
 )
 )
 )
 )
 )
 )
(check-sat)
